c 
c U(n,d) graph
c graph gen seed     : 29029
c number of vertices : 30
c max number of edges: 500
c Euclidean distance : 0.400000
c data structure     : sparse
c
c           Graph Stats
c number of vertices  : 30
c nonisolated vertices: 30
c number of edges     : 132
c edge density        : 0.303448
c max degree          : 14
c avg degree          : 8.80
c min degree          : 2
p col 30 132
e 1 29
e 1 19
e 1 18
e 1 17
e 1 16
e 1 8
e 1 6
e 1 3
e 2 28
e 2 27
e 2 26
e 2 25
e 2 24
e 2 23
e 2 22
e 2 20
e 2 15
e 2 9
e 2 8
e 2 7
e 2 6
e 2 5
e 3 30
e 3 29
e 3 21
e 3 19
e 3 17
e 3 16
e 3 12
e 3 8
e 4 14
e 4 13
e 4 11
e 5 28
e 5 27
e 5 26
e 5 25
e 5 24
e 5 23
e 5 22
e 5 20
e 5 15
e 5 9
e 5 7
e 6 28
e 6 27
e 6 23
e 6 20
e 6 18
e 6 15
e 6 10
e 6 8
e 7 28
e 7 25
e 7 24
e 7 22
e 7 11
e 7 9
e 8 28
e 8 27
e 8 23
e 8 19
e 8 18
e 8 17
e 8 16
e 8 15
e 9 28
e 9 26
e 9 25
e 9 24
e 9 22
e 9 20
e 10 23
e 10 18
e 10 15
e 11 25
e 11 24
e 12 30
e 12 29
e 12 21
e 12 19
e 12 17
e 12 16
e 13 14
e 15 28
e 15 27
e 15 26
e 15 23
e 15 22
e 15 20
e 16 30
e 16 29
e 16 21
e 16 19
e 16 18
e 16 17
e 17 30
e 17 29
e 17 19
e 17 18
e 18 19
e 19 30
e 19 29
e 20 28
e 20 27
e 20 26
e 20 25
e 20 24
e 20 23
e 20 22
e 21 30
e 21 29
e 22 28
e 22 27
e 22 26
e 22 25
e 22 24
e 22 23
e 23 28
e 23 27
e 23 26
e 24 28
e 24 27
e 24 26
e 24 25
e 25 28
e 25 27
e 25 26
e 26 28
e 26 27
e 27 28
e 29 30
